c FILE /home/rafael/Documents/HappySet/MIHS/inputs/happygen/output/graph_d_regular_k10_p0.3_v50_20241127_082701.txt
c SOURCE This is a d-regular graph formed for the happy graph colouring problem.
c DESCRIPTION It was generated using the problem generator of Rhyd Lewis
c
c GRAPH STATS
c Seed                             = -1913567904
c Number of Nodes                  = 50
c Number of colours k              = 10
c Number of pre-assignments        = 15
c Degree of all vertices           = 6
c Density                          = 0.122449
c 
c The degrees of nodes 1 to 50, respectively, are as follows 
c [6, 6, 6, 6, 6, 6, 6, 6, 6, 6, 6, 6, 6, 6, 6, 6, 6, 6, 6, 6, 6, 6, 6, 6, 6, 6, 
c  6, 6, 6, 6, 6, 6, 6, 6, 6, 6, 6, 6, 6, 6, 6, 6, 6, 6, 6, 6, 6, 6, 6, 6] 
c  
p edge 50 150 10
e 1 15
e 1 20
e 1 21
e 1 28
e 1 39
e 1 45
e 2 4
e 2 9
e 2 24
e 2 34
e 2 40
e 2 44
e 3 15
e 3 21
e 3 35
e 3 42
e 3 46
e 3 47
e 4 18
e 4 22
e 4 32
e 4 38
e 4 42
e 5 10
e 5 12
e 5 25
e 5 33
e 5 47
e 5 48
e 6 16
e 6 21
e 6 32
e 6 37
e 6 44
e 6 48
e 7 11
e 7 15
e 7 34
e 7 38
e 7 43
e 7 49
e 8 13
e 8 14
e 8 26
e 8 40
e 8 42
e 8 43
e 9 24
e 9 30
e 9 39
e 9 43
e 9 49
e 10 29
e 10 33
e 10 35
e 10 45
e 10 50
e 11 12
e 11 13
e 11 41
e 11 45
e 11 46
e 12 20
e 12 25
e 12 26
e 12 50
e 13 20
e 13 21
e 13 23
e 13 30
e 14 17
e 14 32
e 14 40
e 14 41
e 14 45
e 15 28
e 15 34
e 15 47
e 16 22
e 16 26
e 16 28
e 16 46
e 16 48
e 17 26
e 17 30
e 17 37
e 17 43
e 17 48
e 18 22
e 18 31
e 18 42
e 18 49
e 18 50
e 19 25
e 19 29
e 19 31
e 19 33
e 19 37
e 19 50
e 20 25
e 20 35
e 20 39
e 21 28
e 21 42
e 22 28
e 22 29
e 22 31
e 23 24
e 23 31
e 23 33
e 23 46
e 23 47
e 24 36
e 24 38
e 24 45
e 25 34
e 25 40
e 26 27
e 26 28
e 27 36
e 27 37
e 27 44
e 27 46
e 27 47
e 29 30
e 29 32
e 29 49
e 30 44
e 30 47
e 31 39
e 31 42
e 32 36
e 32 44
e 33 43
e 33 45
e 34 37
e 34 41
e 35 37
e 35 38
e 35 40
e 36 38
e 36 39
e 36 41
e 38 49
e 39 40
e 41 43
e 41 48
e 44 50
e 46 49
e 48 50
n 1 8
n 2 2
n 3 4
n 7 7
n 8 1
n 12 3
n 13 1
n 31 9
n 33 10
n 37 6
n 38 7
n 41 5
n 44 2
n 47 4
n 48 5
